experiment/data/hgs-res/Vrp-Set-Li-n881/Vrp-Set-Li-n881-hgs/0.hgs1.tour
Route #1: 24 64 104 144 184 185 225 265 305 345 385 425 465 505 545 585 625 665 705 745 785 825 865 864 824 784 744 704 664 624 584 544 504 464 424 384 344 304 264 224 223 263 303 343 383 423 463 503 543 583 623 663 703 743 783 823 863 862 822 782 742 702 662 622 582 542 502 462 422 382 342 302 262 222 182 183 143 142 141 140 100 101 102 103 63 62 22 23
Route #2: 28 68 108 109 149 189 229 269 309 349 389 429 469 509 549 589 629 669 709 749 789 829 869 868 828 788 748 708 668 628 588 548 508 468 428 388 348 308 268 228 227 267 307 347 387 427 467 507 547 587 627 667 707 747 787 827 867 866 826 786 746 706 666 626 586 546 506 466 426 386 346 306 266 226 186 187 188 148 147 146 145 105 106 107 67 66 65 25 26 27
Route #3: 29 69 70 110 150 151 191 190 230 270 310 350 390 430 470 510 550 590 630 670 710 750 790 830 870 871 831 791 751 711 671 631 591 551 511 471 431 391 351 311 271 231 232 272 312 352 392 432 472 512 552 592 632 672 712 752 792 832 872 873 833 793 753 713 673 633 593 553 513 473 433 393 353 313 273 233 193 192 152 112 111 71 31 30
Route #4: 35 75 115 116 156 155 195 196 197 237 277 317 357 397 437 477 517 557 597 637 677 717 757 797 837 877 876 836 796 756 716 676 636 596 556 516 476 436 396 356 316 276 236 235 275 315 355 395 435 475 515 555 595 635 675 715 755 795 835 875 874 834 794 754 714 674 634 594 554 514 474 434 394 354 314 274 234 194 154 153 113 114 74 73 72 32 33 34
Route #5: 37 36 76 77 117 157 158 198 238 278 318 358 398 438 478 518 558 598 638 678 718 758 798 838 878 879 839 799 759 719 679 639 599 559 519 479 439 399 359 319 279 239 240 280 320 360 400 440 480 520 560 600 640 680 720 760 800 840 880 841 801 761 721 681 641 601 561 521 481 441 401 361 321 281 241 201 161 200 199 159 119 118 78 79 80 40 39 38
Route #6: 3 2 1 41 81 120 160 121 122 123 163 162 202 242 282 322 362 402 442 482 522 562 602 642 682 722 762 802 842 843 803 763 723 683 643 603 563 523 483 443 403 363 323 283 243 203 204 244 284 324 364 404 444 484 524 564 604 644 684 724 764 804 844 845 805 765 725 685 645 605 565 525 485 445 405 365 325 285 245 205 165 164 124 84 83 82 42 43 44 4
Route #7: 7 6 5 45 46 47 87 86 85 125 126 127 128 168 167 166 206 246 286 326 366 406 446 486 526 566 606 646 686 726 766 806 846 847 807 767 727 687 647 607 567 527 487 447 407 367 327 287 247 207 208 248 288 328 368 408 448 488 528 568 608 648 688 728 768 808 848 849 809 769 729 689 649 609 569 529 489 449 409 369 329 289 249 209 169 129 89 88 48 8
Route #8: 10 11 51 91 92 132 172 173 213 253 293 333 373 413 453 493 533 573 613 653 693 733 773 813 853 852 812 772 732 692 652 612 572 532 492 452 412 372 332 292 252 212 211 251 291 331 371 411 451 491 531 571 611 651 691 731 771 811 851 850 810 770 730 690 650 610 570 530 490 450 410 370 330 290 250 210 170 171 131 130 90 50 49 9
Route #9: 15 55 95 96 136 135 175 176 177 217 257 297 337 377 417 457 497 537 577 617 657 697 737 777 817 857 856 816 776 736 696 656 616 576 536 496 456 416 376 336 296 256 216 215 255 295 335 375 415 455 495 535 575 615 655 695 735 775 815 855 854 814 774 734 694 654 614 574 534 494 454 414 374 334 294 254 214 174 134 133 93 94 54 53 52 12 13 14
Route #10: 17 16 56 57 97 137 138 178 218 258 298 338 378 418 458 498 538 578 618 658 698 738 778 818 858 859 819 779 739 699 659 619 579 539 499 459 419 379 339 299 259 219 220 260 300 340 380 420 460 500 540 580 620 660 700 740 780 820 860 861 821 781 741 701 661 621 581 541 501 461 421 381 341 301 261 221 181 180 179 139 99 98 58 59 60 61 21 20 19 18
Cost 26566
